NAME : P = NP
TYPE : TSP
DIMENSION : 42
EDGE_WEIGHT_TYPE : EUC_2D
NODE_COORD_SECTION
0 4 351
1 43 268
2 3 51
3 80 37
4 153 95
5 97 28
6 528 90
7 622 146
8 19 592
9 51 6
10 11 69
11 66 630
12 249 127
13 37 229
14 219 53
15 520 116
16 596 105
17 116 17
18 181 30
19 364 279
20 260 146
21 484 299
22 562 738
23 167 390
24 269 40
25 482 391
26 360 32
27 125 218
28 5 226
29 74 305
30 213 30
31 715 58
32 0 115
33 48 450
34 549 6
35 110 549
36 218 15
37 398 292
38 459 166
39 778 18
40 46 0
41 211 81